NAME : portcgen-18-8
COMMENT : portcgen N=18, seed=8
TYPE : TSP
DIMENSION : 18
EDGE_WEIGHT_TYPE : EUC_2D
NODE_COORD_SECTION
1 -223568 13584
2 152931 152118
3 9034 -372018
4 -53516 -75858
5 -414040 139097
6 -17588 35687
7 -50127 -39295
8 178007 -205038
9 156542 -275587
10 124888 91076
11 59636 31265
12 112411 -165865
13 -97109 1652
14 -82673 171908
15 -124002 463774
16 -205827 350367
17 -288793 242478
18 -56583 168203
